[2026-02-23T22:56:27] Logging to: /run/media/saveas/Secondary-Storage/Masters/CS234/CS234_Reinforcement_Learning/Final Project/CS234_Final_Project/results/trajectory_optimization/run_trajopt_demo_output.log
======================================================================
IPOPT TRAJECTORY OPTIMIZATION DEMO (SINGLE STAGE)
======================================================================

1. Loading track: /run/media/saveas/Secondary-Storage/Masters/CS234/CS234_Reinforcement_Learning/Final Project/CS234_Final_Project/maps/Medium_Oval_Map_260m_Obstacles.mat
   Track length: 260.0 m

2. Creating vehicle model...
   Vehicle: SingleTrackModel(VW_Golf_GTI, weight_transfer=enabled)

3. Loaded obstacles from map: 4

4. Setup:
   N = 120
   ds = 2.17 m
   Obstacle subsamples/segment = 7
   Track buffer = 0.00 m

======================================================================
SINGLE STAGE: COMBINED OBJECTIVE
======================================================================

******************************************************************************
This program contains Ipopt, a library for large-scale nonlinear optimization.
 Ipopt is released as open source code under the Eclipse Public License (EPL).
         For more information visit https://github.com/coin-or/Ipopt
******************************************************************************

This is Ipopt version 3.14.11, running with linear solver MUMPS 5.4.1.

Number of nonzeros in equality constraint Jacobian...:    12267
Number of nonzeros in inequality constraint Jacobian.:     2751
Number of nonzeros in Lagrangian Hessian.............:     5592

Total number of variables............................:     1210
                     variables with only lower bounds:        0
                variables with lower and upper bounds:        0
                     variables with only upper bounds:        0
Total number of equality constraints.................:      970
Total number of inequality constraints...............:     1976
        inequality constraints with only lower bounds:     1492
   inequality constraints with lower and upper bounds:        0
        inequality constraints with only upper bounds:      484

iter    objective    inf_pr   inf_du lg(mu)  ||d||  lg(rg) alpha_du alpha_pr  ls
   0  2.6000000e+01 5.59e+00 1.78e+00  -1.0 0.00e+00    -  0.00e+00 0.00e+00   0
   1  2.6001349e+01 5.57e+00 1.78e+00  -1.0 1.80e+01   0.0 3.50e-03 6.00e-03h  1
   2  2.6004482e+01 5.55e+00 5.07e+00  -1.0 2.16e+01  -0.5 6.29e-03 3.19e-03f  1
   3  2.6035305e+01 5.44e+00 5.08e+00  -1.0 1.53e+01  -1.0 1.14e-02 1.88e-02f  1
   4  4.5589803e+01 1.10e+01 2.47e+02  -1.0 1.05e+01  -0.5 2.54e-02 1.00e+00f  1
   5  3.3672607e+01 5.00e+00 5.83e+01  -1.0 5.61e+00  -1.0 3.31e-01 8.75e-01f  1
   6  3.6592700e+01 6.52e+00 3.45e+01  -1.0 6.23e+00  -1.5 3.45e-01 1.00e+00h  1
   7  2.6314178e+01 6.45e+00 8.75e+00  -1.0 2.27e+00    -  5.22e-01 1.00e+00f  1
   8  2.3686307e+01 8.65e+00 5.27e+00  -1.0 2.58e+00    -  3.94e-01 1.00e+00f  1
   9  2.2627999e+01 5.14e+00 5.55e+00  -1.0 5.30e+00    -  5.90e-01 1.00e+00h  1
iter    objective    inf_pr   inf_du lg(mu)  ||d||  lg(rg) alpha_du alpha_pr  ls
  10  2.3358572e+01 1.16e+01 5.54e+00  -1.0 1.09e+01    -  4.96e-01 1.00e+00h  1
  11  3.0250310e+01 9.42e+00 2.68e+01  -1.0 6.98e+00    -  4.62e-01 9.22e-01h  1
  12  3.0314322e+01 7.49e+00 2.94e+01  -1.0 3.58e+01    -  1.26e-02 1.63e-01f  3
  13  2.5856414e+01 1.22e+01 5.74e+00  -1.0 8.17e+00    -  6.06e-01 1.00e+00f  1
  14  2.9319333e+01 1.07e+01 3.71e+00  -1.0 2.48e+01    -  9.83e-01 1.00e+00h  1
  15  3.1002962e+01 7.84e+00 3.77e+01  -1.0 2.57e+01    -  6.11e-01 7.89e-01h  1
  16  3.1350742e+01 7.16e+00 3.29e+01  -1.0 5.14e+00   0.7 8.26e-01 8.25e-02h  4
  17  3.1921914e+01 6.92e+00 3.15e+01  -1.0 9.97e+00   0.3 1.17e-01 4.28e-02h  4
  18  3.1960411e+01 6.88e+00 3.13e+01  -1.0 5.02e+00   0.7 5.96e-01 5.85e-03h  8
  19  3.1974543e+01 6.87e+00 3.13e+01  -1.0 8.13e+00   0.2 2.05e-01 2.07e-03h  9
iter    objective    inf_pr   inf_du lg(mu)  ||d||  lg(rg) alpha_du alpha_pr  ls
  20  3.1975155e+01 6.87e+00 3.13e+01  -1.0 5.01e+00   0.6 1.00e+00 9.81e-05h 14
  21  4.4341449e+01 1.14e+01 5.20e+01  -1.0 9.26e+00   0.2 1.63e-01 4.67e-01h  1
  22  6.9860433e+01 9.61e+00 1.13e+03  -1.0 9.97e+00   0.6 1.27e-01 1.00e+00h  1
  23  6.2485010e+01 8.93e+00 1.05e+03  -1.0 9.18e+00   1.0 8.17e-02 6.92e-02f  1
  24  6.2012433e+01 8.85e+00 1.04e+03  -1.0 1.32e+01   0.5 2.38e-01 8.72e-03h  1
  25  6.4025358e+01 8.77e+00 1.03e+03  -1.0 2.53e+01   0.1 4.87e-02 9.82e-03h  1
  26  6.3918797e+01 8.76e+00 1.03e+03  -1.0 8.30e+00   2.3 7.60e-02 6.41e-04h  1
  27  5.9006914e+01 1.27e+01 1.03e+03  -1.0 6.74e+01   1.8 3.22e-02 4.37e-03f  2
  28  6.3616354e+01 9.34e+00 2.29e+03  -1.0 8.69e+00   1.3 9.03e-02 5.98e-02h  1
  29  6.5909430e+01 9.20e+00 2.25e+03  -1.0 1.33e+01   0.9 1.04e-02 1.36e-02h  1
iter    objective    inf_pr   inf_du lg(mu)  ||d||  lg(rg) alpha_du alpha_pr  ls
  30  6.5922045e+01 9.17e+00 2.25e+03  -1.0 8.73e+00   1.3 2.42e-01 3.50e-03h  1
  31  6.8276682e+01 7.91e+00 1.98e+03  -1.0 8.74e+00   1.7 1.00e+00 1.32e-01h  1
  32  9.3114707e+01 1.51e+01 1.77e+03  -1.0 8.36e+00   1.2 7.92e-01 3.86e-01h  1
  33  1.1234729e+02 8.68e+00 1.35e+03  -1.0 1.16e+01   1.7 9.25e-03 3.70e-01h  2
  34  1.2024253e+02 7.68e+00 1.21e+03  -1.0 1.18e+01   1.2 1.01e-01 8.03e-02h  2
  35  1.0086852e+02 4.85e+00 5.06e+03  -1.0 6.34e+00   0.7 4.49e-01 5.00e-01f  2
  36  1.4009095e+02 5.39e+00 3.21e+03  -1.0 2.92e+00   2.0 7.73e-02 8.18e-01h  1
  37  1.3868982e+02 5.03e+00 3.18e+04  -1.0 2.84e+00   2.5 2.49e-02 6.62e-01f  1
  38  1.1345443e+02 3.61e+00 2.57e+04  -1.0 1.70e+00   2.0 4.06e-01 1.00e+00f  1
  39  1.1349775e+02 3.56e+00 2.54e+04  -1.0 9.35e-01   4.2 9.80e-02 1.32e-02h  1
iter    objective    inf_pr   inf_du lg(mu)  ||d||  lg(rg) alpha_du alpha_pr  ls
  40  1.1348840e+02 3.54e+00 2.52e+04  -1.0 1.14e+00   3.7 2.46e-01 7.03e-03h  1
  41  1.1423722e+02 3.08e+00 2.21e+04  -1.0 9.14e-01   4.2 4.17e-02 1.19e-01h  1
  42  1.1484317e+02 2.60e+00 5.15e+04  -1.0 8.10e-01   4.6 1.00e+00 1.45e-01h  1
  43  1.1919870e+02 8.42e-01 3.88e+04  -1.0 6.97e-01   4.1 1.13e-01 1.00e+00h  1
  44  1.1760546e+02 1.19e-01 5.84e+03  -1.0 7.48e-02   3.6 9.43e-01 1.00e+00h  1
  45  1.1659274e+02 2.00e-03 1.28e+02  -1.0 1.05e-02   3.2 1.00e+00 1.00e+00f  1
  46  1.1395853e+02 1.57e-04 1.37e+01  -1.0 2.79e-02   2.7 1.00e+00 1.00e+00f  1
  47  1.0772381e+02 9.32e-04 1.22e+01  -1.0 7.40e-02   2.2 1.00e+00 1.00e+00f  1
  48  9.7125534e+01 3.74e-03 8.01e+00  -1.0 1.45e-01   1.7 1.00e+00 1.00e+00f  1
  49  8.3101260e+01 1.96e-02 3.99e+00  -1.0 2.17e-01   1.3 1.00e+00 1.00e+00f  1
iter    objective    inf_pr   inf_du lg(mu)  ||d||  lg(rg) alpha_du alpha_pr  ls
  50  6.7395983e+01 1.14e-01 5.62e+00  -1.0 2.90e-01   0.8 5.49e-01 1.00e+00f  1
  51  5.3143331e+01 5.08e-01 8.09e+00  -1.0 5.93e-01   0.3 6.71e-01 1.00e+00f  1
  52  4.3907998e+01 3.64e-01 1.62e+01  -1.0 7.23e-01  -0.2 2.99e-01 1.00e+00f  1
  53  4.2501887e+01 1.18e+01 3.10e+01  -1.0 1.57e+00  -0.6 2.32e-01 7.24e-01f  1
  54  4.2680941e+01 1.13e+01 3.29e+01  -1.0 2.64e+01  -0.2 6.40e-03 4.14e-02f  4
  55  4.0487255e+01 1.42e+01 3.10e+01  -1.0 1.47e+01  -0.7 2.88e-01 1.00e+00F  1
  56  4.7626931e+01 1.41e+01 3.25e+01  -1.0 6.82e+01   1.5 5.75e-03 3.98e-03h  2
  57  6.4578372e+01 1.19e+01 1.48e+02  -1.0 9.36e+00   1.1 1.57e-01 1.56e-01h  1
  58  6.4649332e+01 1.19e+01 1.49e+02  -1.0 3.38e+00   3.3 1.32e-01 9.65e-04h  1
  59  7.5152708e+01 6.02e+00 9.50e+02  -1.0 3.38e+01   2.8 1.41e-02 7.49e-03h  2
iter    objective    inf_pr   inf_du lg(mu)  ||d||  lg(rg) alpha_du alpha_pr  ls
  60  7.5057692e+01 8.06e+00 1.54e+04  -1.0 2.48e+01   2.3 3.64e-02 1.76e-02f  3
  61  7.5077979e+01 8.05e+00 1.54e+04  -1.0 3.97e+00   3.7 1.36e-01 1.45e-03h  1
  62  7.5858386e+01 7.70e+00 1.23e+05  -1.0 3.81e+00   4.1 5.36e-01 4.90e-02h  1
  63  7.5839407e+01 7.70e+00 9.48e+05  -1.0 3.13e+00   5.4 3.69e-01 8.73e-04h  1
  64  8.2789066e+01 7.50e+00 1.00e+06  -1.0 1.30e+01   4.9 3.08e-02 2.80e-02h  1
  65  8.2786373e+01 7.49e+00 3.21e+06  -1.0 3.45e+00   5.4 1.00e+00 2.25e-04h  1
  66  8.4339981e+01 7.93e+00 7.68e+06  -1.0 3.46e+00   5.8 1.09e-01 3.73e-01h  1
  67  8.5462502e+01 7.75e+00 5.19e+07  -1.0 4.77e+00   7.1 4.46e-01 2.46e-02h  1
  68  8.5474033e+01 7.74e+00 3.51e+07  -1.0 4.59e+00   6.6 1.00e+00 7.17e-04h  1
  69  8.5477129e+01 7.74e+00 9.26e+07  -1.0 4.56e+00   7.1 6.41e-01 5.33e-04h  1
iter    objective    inf_pr   inf_du lg(mu)  ||d||  lg(rg) alpha_du alpha_pr  ls
  70  9.6486138e+01 7.18e+00 1.33e+08  -1.0 4.57e+00   6.6 1.00e+00 4.03e-01h  1
  71  9.6575666e+01 7.17e+00 1.33e+08  -1.0 2.88e+00   7.0 1.50e-01 2.08e-03h  1
  72r 9.6575666e+01 7.17e+00 1.00e+03   0.9 0.00e+00   6.5 0.00e+00 4.56e-07R  2
  73r 9.8704809e+01 2.63e+00 9.96e+02   0.9 6.78e+03    -  5.58e-03 1.05e-03f  1
  74  4.8397001e+01 7.71e+00 4.40e+01  -1.0 4.38e+00    -  2.20e-02 1.00e+00f  1
  75  4.9221982e+01 7.83e+00 1.29e+07  -1.0 6.35e+00   6.1 1.20e-01 1.03e-01h  1
  76  4.9242751e+01 7.80e+00 1.19e+07  -1.0 1.00e+01   6.5 1.41e-01 5.20e-03h  1
  77  4.9242915e+01 7.80e+00 1.19e+07  -1.0 3.89e+00   6.9 3.72e-01 1.39e-05h  1
  78  4.9093993e+01 7.89e+00 1.15e+07  -1.0 1.53e+01   6.4 4.27e-02 3.58e-03h  3
  79  4.9567173e+01 7.49e+00 1.80e+07  -1.0 4.06e+00   6.9 6.87e-01 6.41e-02h  1
iter    objective    inf_pr   inf_du lg(mu)  ||d||  lg(rg) alpha_du alpha_pr  ls
  80  4.9574049e+01 7.49e+00 1.90e+07  -1.0 3.45e+00   7.3 2.39e-01 7.12e-04h  1
  81  4.9587018e+01 7.46e+00 3.79e+07  -1.0 3.88e+00   6.8 9.90e-01 3.74e-03h  1
  82  5.5628200e+01 7.19e+00 3.32e+09  -1.0 3.85e+00   7.2 4.26e-01 4.25e-01h  1
MUMPS returned INFO(1) = -9 and requires more memory, reallocating.  Attempt 1
  Increasing icntl[13] from 1000 to 2000.
  83  5.5818107e+01 8.92e+00 2.99e+09  -1.0 1.25e+00   8.6 3.55e-02 5.00e-01f  2
  84  5.5772534e+01 8.88e+00 2.97e+09  -1.0 1.51e+00   9.0 7.76e-04 4.36e-03h  1
  85  5.5772656e+01 8.88e+00 2.97e+09  -1.0 5.43e+00   8.5 9.06e-01 1.29e-05h  1
  86  6.1162624e+01 5.01e+00 2.95e+10  -1.0 1.50e+00   8.9 3.78e-01 1.00e+00h  1
  87  6.2406326e+01 4.53e+00 2.93e+11  -1.0 2.93e+00   9.4 1.91e-03 3.08e-01H  1
  88  6.0399140e+01 2.90e+00 1.54e+11  -1.0 8.58e-01   9.8 8.19e-06 5.00e-01f  2
  89  7.6597315e+01 5.18e+00 8.30e+10  -1.0 1.45e+00   9.3 3.71e-02 1.00e+00h  1
iter    objective    inf_pr   inf_du lg(mu)  ||d||  lg(rg) alpha_du alpha_pr  ls
  90  7.1706720e+01 2.31e+00 4.69e+10  -1.0 1.18e+00   9.7 5.65e-01 1.00e+00f  1
  91  7.1661564e+01 2.31e+00 4.68e+10  -1.0 9.17e-01  10.2 5.98e-01 2.67e-03H  1
  92  7.2111996e+01 2.29e+00 4.63e+10  -1.0 5.31e+00   9.7 1.59e-01 1.13e-02h  6
  93  7.2516065e+01 2.26e+00 4.58e+10  -1.0 5.87e+00  10.1 1.00e+00 8.94e-03h  6
  94  6.7405572e+01 3.94e+00 6.97e+12  -1.0 7.76e-01  11.4 2.27e-01 1.00e+00f  1
  95  6.5594438e+01 6.48e-01 1.86e+12  -1.0 6.74e-01  11.0 1.12e-02 1.00e+00f  1
  96  6.5134045e+01 1.15e+00 3.65e+12  -1.0 2.65e-01  12.3 1.29e-05 1.00e+00f  1
  97  6.5139522e+01 1.15e+00 3.64e+12  -1.0 1.62e-01  11.8 1.00e+00 2.86e-03h  1
  98  6.5139713e+01 1.15e+00 3.64e+12  -1.0 1.69e-01  11.3 1.00e+00 1.89e-04h  1
  99  6.6308799e+01 9.16e-02 1.02e+12  -1.0 1.75e-01  10.9 1.00e+00 1.00e+00h  1
iter    objective    inf_pr   inf_du lg(mu)  ||d||  lg(rg) alpha_du alpha_pr  ls
 100  6.6314773e+01 6.91e-04 1.97e+10  -1.0 1.85e-02  10.4 9.94e-01 1.00e+00h  1
 101  6.6314670e+01 7.33e-08 4.42e+06  -1.0 3.33e-05   9.9 9.90e-01 1.00e+00h  1
 102  6.6314669e+01 7.11e-15 3.30e+04  -1.0 2.99e-08   9.4 9.90e-01 1.00e+00f  1
 103  6.6314564e+01 1.74e-11 2.72e+03  -1.0 2.97e-06   9.0 1.00e+00 1.00e+00f  1
 104  6.6314423e+01 3.09e-11 1.21e+03  -1.0 3.96e-06   8.5 1.00e+00 1.00e+00f  1
 105  6.6314152e+01 1.12e-10 7.65e+02  -1.0 7.53e-06   8.0 1.00e+00 1.00e+00f  1
 106  6.6313722e+01 2.64e-10 3.90e+02  -1.0 1.15e-05   7.5 1.00e+00 1.00e+00f  1
 107  6.6312894e+01 9.08e-10 2.41e+02  -1.0 2.13e-05   7.1 1.00e+00 1.00e+00f  1
 108  6.6311408e+01 2.51e-09 1.33e+02  -1.0 3.52e-05   6.6 1.00e+00 1.00e+00f  1
 109  6.6308409e+01 8.37e-09 8.00e+01  -1.0 6.38e-05   6.1 1.00e+00 1.00e+00f  1
iter    objective    inf_pr   inf_du lg(mu)  ||d||  lg(rg) alpha_du alpha_pr  ls
 110  6.6302224e+01 2.59e-08 4.62e+01  -1.0 1.11e-04   5.6 1.00e+00 1.00e+00f  1
 111  6.6288164e+01 9.11e-08 2.82e+01  -1.0 2.02e-04   5.1 1.00e+00 1.00e+00f  1
 112  6.6254211e+01 3.31e-07 1.73e+01  -1.0 3.72e-04   4.7 1.00e+00 1.00e+00f  1
 113  6.6166089e+01 1.40e-06 1.15e+01  -1.0 7.40e-04   4.2 1.00e+00 1.00e+00f  1
 114  6.5927891e+01 6.83e-06 1.19e+01  -1.0 2.30e-03   3.7 1.00e+00 1.00e+00f  1
 115  6.5273293e+01 4.09e-05 1.18e+01  -1.0 6.83e-03   3.2 1.00e+00 1.00e+00f  1
 116  6.3556632e+01 2.83e-04 1.09e+01  -1.0 1.90e-02   2.8 1.00e+00 1.00e+00f  1
 117  5.9678100e+01 2.08e-03 8.70e+00  -1.0 4.55e-02   2.3 1.00e+00 1.00e+00f  1
 118  5.2985390e+01 1.27e-02 5.17e+00  -1.0 8.11e-02   1.8 1.00e+00 1.00e+00f  1
 119  4.4343000e+01 5.11e-02 3.34e+00  -1.0 1.57e-01   1.3 1.00e+00 1.00e+00f  1
iter    objective    inf_pr   inf_du lg(mu)  ||d||  lg(rg) alpha_du alpha_pr  ls
 120  3.8518528e+01 4.69e+00 3.50e+01  -1.0 2.05e-01   0.9 8.70e-01 1.00e+00f  1
 121  3.8008498e+01 5.19e-01 2.88e+00  -1.0 3.86e-01   0.4 1.00e+00 1.00e+00h  1
 122  3.4656508e+01 5.76e-01 9.21e+00  -1.0 3.34e-01  -0.1 9.57e-01 1.00e+00f  1
 123  3.2447508e+01 2.61e+00 7.59e+00  -1.0 9.15e-01  -0.6 1.00e+00 1.00e+00f  1
 124  3.1455588e+01 4.86e-01 1.44e+00  -1.0 1.23e+00  -1.1 1.00e+00 1.00e+00h  1
 125  2.9213343e+01 3.41e+00 7.66e+00  -1.0 1.76e+01    -  9.71e-01 1.00e+00f  1
 126  2.8918003e+01 4.44e-01 1.16e+00  -1.0 4.11e+00    -  1.00e+00 1.00e+00h  1
 127  2.8982920e+01 7.98e-03 1.86e-02  -1.0 7.39e-01    -  1.00e+00 1.00e+00h  1
 128  2.5335095e+01 2.09e-01 4.22e-01  -2.5 1.41e+01    -  5.69e-01 1.00e+00f  1
 129  2.3928232e+01 8.26e-02 1.31e-01  -2.5 2.11e+01    -  6.24e-01 6.19e-01h  1
iter    objective    inf_pr   inf_du lg(mu)  ||d||  lg(rg) alpha_du alpha_pr  ls
 130  2.2660219e+01 2.15e-02 2.18e-02  -2.5 2.81e+01    -  8.31e-01 8.34e-01h  1
 131  2.2451276e+01 6.52e-03 9.47e-03  -2.5 9.41e+00    -  1.00e+00 7.86e-01h  1
 132  2.2411120e+01 1.35e-04 1.88e-03  -2.5 2.43e+00    -  1.00e+00 1.00e+00h  1
 133  2.2345658e+01 3.51e-04 6.48e-03  -3.8 1.84e+00    -  1.00e+00 6.18e-01h  1
 134  2.2337285e+01 1.11e-04 8.16e-03  -3.8 9.20e-01    -  1.00e+00 8.19e-01h  1
 135  2.2336904e+01 4.44e-06 1.49e-04  -3.8 7.30e-02    -  1.00e+00 1.00e+00h  1
 136  2.2336198e+01 1.36e-06 1.43e-03  -5.7 5.97e-02    -  1.00e+00 8.47e-01h  1
 137  2.2336167e+01 1.62e-07 1.72e-07  -5.7 5.63e-03    -  1.00e+00 1.00e+00h  1
 138  2.2336160e+01 8.24e-10 9.02e-10  -7.0 5.25e-04    -  1.00e+00 1.00e+00h  1

Number of Iterations....: 138

                                   (scaled)                 (unscaled)
Objective...............:   2.2336160021210002e+01    2.2336160021210002e+01
Dual infeasibility......:   9.0173180034014422e-10    9.0173180034014422e-10
Constraint violation....:   8.2430146042256069e-10    8.2430146042256069e-10
Variable bound violation:   0.0000000000000000e+00    0.0000000000000000e+00
Complementarity.........:   9.7472886845933603e-08    9.7472886845933603e-08
Overall NLP error.......:   9.7472886845933603e-08    9.7472886845933603e-08


Number of objective function evaluations             = 222
Number of objective gradient evaluations             = 139
Number of equality constraint evaluations            = 222
Number of inequality constraint evaluations          = 222
Number of equality constraint Jacobian evaluations   = 140
Number of inequality constraint Jacobian evaluations = 140
Number of Lagrangian Hessian evaluations             = 138
Total seconds in IPOPT                               = 27.915

EXIT: Optimal Solution Found.
      solver  :   t_proc      (avg)   t_wall      (avg)    n_eval
       nlp_f  | 123.91ms (558.14us)  54.33ms (244.74us)       222
       nlp_g  |   2.94 s ( 13.24ms)   1.22 s (  5.50ms)       222
  nlp_grad_f  | 181.06ms (  1.29ms)  71.83ms (513.04us)       140
  nlp_hess_l  |  15.04 s (109.81ms)  15.18 s (110.79ms)       137
   nlp_jac_g  |   9.61 s ( 68.19ms)   4.67 s ( 33.14ms)       141
       total  |  59.08 s ( 59.08 s)  27.92 s ( 27.92 s)         1
  Success: True
  Cost: 22.3362
  Iterations: 138
  Solve time: 39.38 s
  Max obstacle slack: 0.0000e+00
  Min obstacle clearance: -0.0028 m

Generating plots...
  Saved: /run/media/saveas/Secondary-Storage/Masters/CS234/CS234_Reinforcement_Learning/Final Project/CS234_Final_Project/results/trajectory_optimization/ipopt_single_stage_trajectory.png
  Saved: /run/media/saveas/Secondary-Storage/Masters/CS234/CS234_Reinforcement_Learning/Final Project/CS234_Final_Project/results/trajectory_optimization/ipopt_single_stage_states.png
  Saved: /run/media/saveas/Secondary-Storage/Masters/CS234/CS234_Reinforcement_Learning/Final Project/CS234_Final_Project/results/trajectory_optimization/ipopt_single_stage_controls.png

Generating animation...
  Saved: /run/media/saveas/Secondary-Storage/Masters/CS234/CS234_Reinforcement_Learning/Final Project/CS234_Final_Project/results/trajectory_optimization/ipopt_single_stage_animation.gif

======================================================================
SUMMARY
======================================================================
Run                       Iters    Time [s]   Cost [s]   Max Sigma    Min Clear [m]  Success
-----------------------------------------------------------------------------------------------
Single stage              138      39.38      22.3362    0.000e+00    -0.0028        True

All outputs saved to: /run/media/saveas/Secondary-Storage/Masters/CS234/CS234_Reinforcement_Learning/Final Project/CS234_Final_Project/results/trajectory_optimization
